NAME : XML100_3173_05
DIMENSION : 101
NB_CLUSTERS : 5
CLUSTERING_ALG : KMedoids
CLUSTERING_PARAMS : k(4)
CLUSTERS
1 0
2 12 20 24 27 28 36 45 51 54 66 80 81 82 92 93 97
3 1 3 4 5 6 8 9 10 18 19 21 26 31 32 34 42 44 48 55 56 57 62 64 65 77 79 87 95 99 100
4 11 15 16 17 22 23 29 33 35 37 39 40 43 47 49 53 60 61 63 70 72 84 86 88 91
5 2 7 13 14 25 30 38 41 46 50 52 58 59 67 68 69 71 73 74 75 76 78 83 85 89 90 94 96 98
EOF